
Gurobi 10.0.0 (win64) logging started Tue Jun  4 16:36:29 2024

Set parameter LogFile to value "C:\Users\ealvarezq\Documents\GitHub\Comillas\Models\JointResearch\05. Models\06.Benchmarking\K.Investments_per_hour\9n_mod1_ByStages_nc80/openStarNet_9n_mod1_ByStages_nc80.log"
Set parameter Method to value 2
Set parameter MIPFocus to value 1
Set parameter Presolve to value 2
Set parameter RINS to value 100
Set parameter MIPGap to value 0.01
Set parameter Threads to value 9
Set parameter TimeLimit to value 259200
Set parameter IterationLimit to value 760000000
Gurobi Optimizer version 10.0.0 build v10.0.0rc2 (win64)

CPU model: Intel(R) Core(TM) i7-8700 CPU @ 3.20GHz, instruction set [SSE2|AVX|AVX2]
Thread count: 6 physical cores, 12 logical processors, using up to 9 threads

Optimize a model with 20963 rows, 11156 columns and 63457 nonzeros
Model fingerprint: 0xca52a45a
Variable types: 11120 continuous, 36 integer (36 binary)
Coefficient statistics:
  Matrix range     [2e-04, 1e+03]
  Objective range  [1e+00, 1e+00]
  Bounds range     [1e-04, 2e+00]
  RHS range        [1e-04, 1e+00]
Presolve removed 7123 rows and 3764 columns
Presolve time: 0.07s
Presolved: 13840 rows, 7392 columns, 47356 nonzeros
Variable types: 7356 continuous, 36 integer (36 binary)
Found heuristic solution: objective 5070.6089498
Root relaxation presolved: 13840 rows, 7392 columns, 47356 nonzeros

Root barrier log...

Ordering time: 0.01s

Barrier statistics:
 Dense cols : 36
 AA' NZ     : 1.639e+05
 Factor NZ  : 3.242e+05 (roughly 11 MB of memory)
 Factor Ops : 1.080e+07 (less than 1 second per iteration)
 Threads    : 9

                  Objective                Residual
Iter       Primal          Dual         Primal    Dual     Compl     Time
   0   4.73874368e+05 -3.42261621e+07  7.18e+00 2.08e+02  4.89e+03     0s
   1   7.76128332e+04 -1.38342162e+07  1.01e+00 3.45e-09  7.53e+02     0s
   2   2.05155075e+04 -2.72832738e+06  8.48e-02 6.94e-10  1.08e+02     0s
   3   7.24079011e+03 -1.55779729e+05  1.52e-03 5.76e-11  6.00e+00     0s
   4   1.81745828e+03 -1.69478699e+04  4.72e-05 1.00e-11  6.88e-01     0s
   5   8.69673483e+02 -5.72520824e+03  4.84e-06 3.87e-12  2.42e-01     0s
   6   6.04858635e+02 -3.06702894e+03  2.06e-06 2.05e-12  1.35e-01     0s
   7   3.36929497e+02 -6.82041307e+02  5.54e-07 1.19e-12  3.74e-02     0s
   8   2.14535101e+02 -1.94138431e+02  2.00e-07 1.09e-12  1.50e-02     0s
   9   1.35557348e+02  3.24475149e+01  6.36e-08 1.17e-12  3.78e-03     0s
  10   1.12639458e+02  6.60785732e+01  3.13e-08 9.59e-13  1.71e-03     0s
  11   1.07348155e+02  6.92659621e+01  2.45e-08 9.64e-13  1.40e-03     0s
  12   9.84351784e+01  7.71970949e+01  1.24e-08 7.49e-13  7.79e-04     0s
  13   9.57714768e+01  8.09359503e+01  8.80e-09 8.60e-13  5.44e-04     0s
  14   9.41666253e+01  8.18274023e+01  6.51e-09 7.81e-13  4.53e-04     0s
  15   9.17508843e+01  8.51048957e+01  3.35e-09 7.46e-13  2.44e-04     0s
  16   9.04694975e+01  8.61736046e+01  1.67e-09 6.18e-13  1.58e-04     0s
  17   8.97933351e+01  8.69178897e+01  7.88e-10 7.26e-13  1.05e-04     0s
  18   8.93473866e+01  8.81667455e+01  3.48e-10 9.16e-13  4.33e-05     0s
  19   8.91954807e+01  8.83628382e+01  2.03e-10 6.22e-13  3.05e-05     0s
  20   8.90579508e+01  8.85201255e+01  6.75e-11 6.99e-13  1.97e-05     0s
  21   8.89779341e+01  8.89210507e+01  8.66e-10 1.20e-12  2.09e-06     0s
  22   8.89714461e+01  8.89704278e+01  1.85e-10 1.33e-12  3.74e-08     0s
  23   8.89711088e+01  8.89711078e+01  2.20e-10 8.17e-13  3.74e-11     0s
  24   8.89711085e+01  8.89711085e+01  2.64e-12 9.13e-13  1.42e-16     0s

Barrier solved model in 24 iterations and 0.35 seconds (0.31 work units)
Optimal objective 8.89711085e+01


Root relaxation: objective 8.897111e+01, 1146 iterations, 0.25 seconds (0.20 work units)

    Nodes    |    Current Node    |     Objective Bounds      |     Work
 Expl Unexpl |  Obj  Depth IntInf | Incumbent    BestBd   Gap | It/Node Time

     0     0   88.97111    0    5 5070.60895   88.97111  98.2%     -    0s
H    0     0                    5001.8746480   88.97111  98.2%     -    0s
H    0     0                      93.8552532   88.97111  5.20%     -    0s
     0     0   90.72149    0    1   93.85525   90.72149  3.34%     -    0s
     0     0   90.72149    0    3   93.85525   90.72149  3.34%     -    0s
H    0     0                      91.3388344   90.72149  0.68%     -    0s

Cutting planes:
  Gomory: 1
  MIR: 73

Explored 1 nodes (1833 simplex iterations) in 0.92 seconds (0.58 work units)
Thread count was 9 (of 12 available processors)

Solution count 4: 91.3388 93.8553 5001.87 5070.61 

Optimal solution found (tolerance 1.00e-02)
Best objective 9.133883438118e+01, best bound 9.133883438118e+01, gap 0.0000%

Gurobi 10.0.0 (win64) logging started Tue Jun  4 16:36:35 2024

Set parameter LogFile to value "C:\Users\ealvarezq\Documents\GitHub\Comillas\Models\JointResearch\05. Models\06.Benchmarking\K.Investments_per_hour\9n_mod1_ByStages_nc80/openStarNet_9n_mod1_ByStages_nc80.log"
Set parameter Method to value 2
Set parameter MIPFocus to value 1
Set parameter Presolve to value 2
Set parameter RINS to value 100
Set parameter MIPGap to value 0.01
Set parameter Threads to value 9
Set parameter TimeLimit to value 259200
Set parameter IterationLimit to value 760000000
Gurobi Optimizer version 10.0.0 build v10.0.0rc2 (win64)

CPU model: Intel(R) Core(TM) i7-8700 CPU @ 3.20GHz, instruction set [SSE2|AVX|AVX2]
Thread count: 6 physical cores, 12 logical processors, using up to 9 threads

Optimize a model with 20963 rows, 11120 columns and 51901 nonzeros
Model fingerprint: 0xcc4764a3
Coefficient statistics:
  Matrix range     [2e-04, 1e+03]
  Objective range  [1e+00, 1e+00]
  Bounds range     [1e-04, 2e+00]
  RHS range        [1e-04, 2e+01]
Presolve removed 19110 rows and 7365 columns
Presolve time: 0.02s
Presolved: 1853 rows, 3835 columns, 8262 nonzeros

Ordering time: 0.00s

Barrier statistics:
 AA' NZ     : 4.066e+03
 Factor NZ  : 1.838e+04 (roughly 2 MB of memory)
 Factor Ops : 2.401e+05 (less than 1 second per iteration)
 Threads    : 1

                  Objective                Residual
Iter       Primal          Dual         Primal    Dual     Compl     Time
   0   7.69875721e+05 -2.13005732e+07  9.59e+00 1.81e+02  1.74e+04     0s
   1   8.09196289e+04 -1.28296885e+07  8.22e-01 1.27e-11  2.45e+03     0s
   2   3.36774572e+04 -3.67195668e+06  2.02e-01 2.00e-11  5.50e+02     0s
   3   1.43713627e+04 -5.79825729e+05  1.19e-02 1.05e-11  7.03e+01     0s
   4   6.26107995e+03 -3.89294467e+04  7.64e-04 7.28e-12  5.20e+00     0s
   5   2.15189373e+03 -9.04387356e+03  1.10e-04 5.46e-12  1.28e+00     0s
   6   8.30946071e+02 -2.82771426e+03  9.24e-06 2.27e-12  4.19e-01     0s
   7   4.20684021e+02 -4.44197973e+02  1.39e-06 1.91e-12  9.91e-02     0s
   8   2.63310262e+02 -1.09011474e+02  6.21e-07 1.90e-12  4.27e-02     0s
   9   1.49482255e+02  1.16566945e+01  1.66e-07 8.03e-13  1.58e-02     0s
  10   1.14009270e+02  6.92981575e+01  5.72e-08 1.04e-12  5.13e-03     0s
  11   9.90153219e+01  8.40713980e+01  1.77e-08 2.32e-12  1.71e-03     0s
  12   9.49194014e+01  8.82497523e+01  8.00e-09 1.53e-12  7.65e-04     0s
  13   9.28550093e+01  9.00045403e+01  3.29e-09 2.17e-12  3.27e-04     0s
  14   9.18583360e+01  9.08095691e+01  1.05e-09 2.58e-12  1.20e-04     0s
  15   9.14626158e+01  9.12801960e+01  2.26e-10 2.81e-12  2.09e-05     0s
  16   9.13408495e+01  9.13241022e+01  5.44e-12 1.36e-12  1.92e-06     0s
  17   9.13389743e+01  9.13385613e+01  3.06e-13 2.52e-12  4.73e-08     0s
  18   9.13388344e+01  9.13388343e+01  2.39e-11 8.91e-13  9.69e-12     0s

Barrier solved model in 18 iterations and 0.04 seconds (0.04 work units)
Optimal objective 9.13388344e+01

Crossover log...

     877 DPushes remaining with DInf 0.0000000e+00                 0s
       0 DPushes remaining with DInf 0.0000000e+00                 0s

      18 PPushes remaining with PInf 0.0000000e+00                 0s
       0 PPushes remaining with PInf 0.0000000e+00                 0s

  Push phase complete: Pinf 0.0000000e+00, Dinf 1.7860767e-13      0s

Iteration    Objective       Primal Inf.    Dual Inf.      Time
      70    9.1338834e+01   0.000000e+00   0.000000e+00      0s

Solved in 70 iterations and 0.06 seconds (0.05 work units)
Optimal objective  9.133883438e+01
